WARNING: for repeatability, setting FPU to use double precision
============================[ Problem Statistics ]=============================
|                                                                             |
|  Number of variables:         27899                                         |
|  Number of clauses:          547853                                         |
|  Parse time:                   0.14 s                                       |
|  Eliminated clauses:           0.05 Mb                                      |
|  Simplification time:          0.16 s                                       |
|                                                                             |
============================[ Search Statistics ]==============================
| Conflicts |          ORIGINAL         |          LEARNT          | Progress |
|           |    Vars  Clauses Literals |    Limit  Clauses Lit/Cl |          |
===============================================================================
|       100 |    2834    23130    71720 |     8481      100     15 | 73.590 % |
|       250 |    2834    23130    71720 |     9329      250     19 | 73.590 % |
|       475 |    2834    23130    71720 |    10262      475     21 | 73.590 % |
|       812 |    2834    23130    71720 |    11288      812     26 | 73.590 % |
|      1318 |    2834    23130    71720 |    12417     1318     21 | 73.590 % |
|      2077 |    2833    23130    71720 |    13658     2076     23 | 73.594 % |
|      3216 |    2833    23130    71720 |    15024     3215     32 | 73.594 % |
|      4924 |    2833    23130    71720 |    16527     4923     32 | 73.594 % |
|      7486 |    2833    23130    71720 |    18179     7485     38 | 73.594 % |
|     11330 |    2833    23130    71720 |    19997    11329     42 | 73.594 % |
|     17096 |    2833    23130    71720 |    21997    17095     61 | 73.594 % |
|     25745 |    2833    23121    71675 |    24197    25154     66 | 73.594 % |
|     38719 |    2833    23121    71675 |    26617    38128     73 | 73.594 % |
===============================================================================
restarts              : 127
conflicts             : 41663          (36885 /sec)
decisions             : 162851         (0.00 % random) (144174 /sec)
propagations          : 3050986        (2701075 /sec)
conflict literals     : 3393584        (7.01 % deleted)
Memory used           : 78.00 MB
CPU time              : 1.12955 s

SATISFIABLE
